\ LP format - for model browsing. Use MPS format to capture full model detail.
Maximize
  4 x_1 + 6 x_2 + 4 x_3 + 5 x_4 + 5 x_5 + 8 x_6 + 8 x_7 + 8 x_8 + 7 x_9
   + 6 x_10 + 3 x_11 + 4 x_12 + 2 x_13 + 10 x_14 + 7 x_15 + 2 x_16 + x_17
   + x_18 + 3 x_19 + 4 x_20
Subject To
 C_1: 9 x_1 + 3 x_3 + 3 x_5 + 5 x_7 + 10 x_8 + 6 x_11 + 4 x_12 + 9 x_15
   + 6 x_16 + 8 x_18 + 2 x_20 <= 32
 C_2: 7 x_1 + 9 x_2 + x_3 + 3 x_4 + 7 x_6 + x_7 + 8 x_8 + 4 x_9 + 4 x_12
   + 4 x_14 + 2 x_18 + 2 x_19 <= 26
 C_3: 3 x_1 + 2 x_4 + 5 x_7 + 3 x_9 + 9 x_10 + 6 x_12 + x_17 + x_19
   + 7 x_20 <= 18
 C_4: 10 x_1 + 7 x_2 + 2 x_3 + 10 x_4 + 4 x_14 + 3 x_17 + 6 x_18 + 8 x_19
   <= 25
 C_5: 2 x_1 + 3 x_3 + 9 x_5 + x_7 + 3 x_8 + x_13 + x_14 + 8 x_15 + 2 x_17
   <= 15
 C_6: x_2 + 6 x_3 + 2 x_4 + 6 x_8 + 10 x_10 + 7 x_13 + 10 x_16 + 7 x_18
   <= 24
 C_7: 6 x_4 + 3 x_9 + 6 x_10 + 9 x_11 + 8 x_13 + 6 x_14 + x_15 + 2 x_16
   + 2 x_17 + 7 x_18 <= 25
 C_8: 3 x_1 + 2 x_2 + 3 x_4 + 10 x_5 + 2 x_7 + 6 x_8 + 5 x_10 + x_13
   + 5 x_15 + 8 x_16 + 6 x_18 + 3 x_19 <= 27
 C_9: 3 x_1 + 8 x_2 + 5 x_3 + 2 x_6 + x_7 + 4 x_10 + 8 x_11 + x_12 + 5 x_14
   + 4 x_18 + 3 x_20 <= 22
 C_10: 7 x_1 + 10 x_7 + 4 x_8 + 10 x_11 + 8 x_17 + 6 x_18 <= 22
Bounds
Binaries
 x_1 x_2 x_3 x_4 x_5 x_6 x_7 x_8 x_9 x_10 x_11 x_12 x_13 x_14 x_15 x_16
 x_17 x_18 x_19 x_20
End
